50

100 19 202
99 12 309
95 26 208
94 22 347
87 7 225
85 23 404
85 9 196
83 21 325
81 11 347
81 21 371
80 15 307
80 3 174
77 14 377
76 12 413
75 20 251
74 3 403
73 1 268
73 8 200
72 22 312
66 20 243
63 19 442
60 7 441
52 13 178
50 3 238
47 8 446
45 9 353
44 3 430
43 3 279
39 1 295
39 11 406
38 10 400
38 4 450
35 10 387
34 7 204
33 3 217
32 6 276
25 6 377
25 7 206
23 2 173
20 6 392
17 1 303
15 2 222
15 1 234
14 3 449
12 1 362
11 4 419
10 3 413
10 3 273
8 2 413
8 2 399
